c This graph is produced by Sof A. Lee
c Experiment on graph colouring using phase coupled oscillators
c Date: 17/02/2008 11:45:48 PM
p edge 10 35
e 1 9e 1 2e 1 10e 1 4e 1 8e 1 6e 1 5e 1 7e 1 3e 2 7e 2 6e 2 9e 2 4e 2 3e 2 8e 3 6e 3 10e 3 5e 3 4e 4 10e 4 9e 4 5e 4 7e 4 8e 5 7e 5 6e 5 8e 5 9e 6 7e 6 9e 6 10e 6 8e 7 10e 8 10e 9 10
